p cnf 7230 17
-3092 -3610 4159 0
3092 -4159 0
-3102 -3674 -4164 0
-3098 -3670 -4162 0
-3582 -3586 -4160 0
3102 -4165 0
3098 -4163 0
3582 -4161 0
4164 4165 0
4162 4163 0
4160 4161 0
3674 -4165 0
3670 -4163 0
3586 -4161 0
3584 -4167 0
4158 4159 0
-4158 -4159 0
